GLPSOL--GLPK LP/MIP Solver 5.0
Parameter(s) specified in the command line:
 --lp ../modeles/20_39.lp --log 20_39.log
Reading problem data from '../modeles/20_39.lp'...
861 rows, 1600 columns, 5560 non-zeros
780 integer variables, all of which are binary
2487 lines were read
GLPK Integer Optimizer 5.0
861 rows, 1600 columns, 5560 non-zeros
780 integer variables, all of which are binary
Preprocessing...
760 constraint coefficient(s) were reduced
861 rows, 1580 columns, 5540 non-zeros
780 integer variables, all of which are binary
Scaling...
 A: min|aij| =  2.630e-03  max|aij| =  4.000e+00  ratio =  1.521e+03
GM: min|aij| =  1.601e-01  max|aij| =  6.245e+00  ratio =  3.900e+01
EQ: min|aij| =  2.564e-02  max|aij| =  1.000e+00  ratio =  3.900e+01
2N: min|aij| =  2.104e-02  max|aij| =  1.583e+00  ratio =  7.523e+01
Constructing initial basis...
Size of triangular part is 861
Solving LP relaxation...
GLPK Simplex Optimizer 5.0
861 rows, 1580 columns, 5540 non-zeros
      0: obj =   4.000000000e+01 inf =   9.950e+01 (41)
    179: obj =   4.740131579e-01 inf =   0.000e+00 (0)
*   389: obj =  -4.360576923e+00 inf =   1.299e-15 (0)
OPTIMAL LP SOLUTION FOUND
Integer optimization begins...
Long-step dual simplex will be used
+   389: mip =     not found yet >=              -inf        (1; 0)
+   412: >>>>>  -4.360576923e+00 >=  -4.360576923e+00   0.0% (16; 0)
+   412: mip =  -4.360576923e+00 >=     tree is empty   0.0% (0; 31)
INTEGER OPTIMAL SOLUTION FOUND
Time used:   0.0 secs
Memory used: 2.4 Mb (2473812 bytes)
